NAME           C:\Bruker\Hvattum\knapsack\Problems\class1\100-5-22.mps
ROWS
 N  OBJ
 L  CONSTR1
 L  CONSTR2
 L  CONSTR3
 L  CONSTR4
 L  CONSTR5
COLUMNS
    INT0001   'MARKER'  'INTORG'
    X1        OBJ       982
    X1        CONSTR1   943
    X1        CONSTR2   184
    X1        CONSTR3   929
    X1        CONSTR4   97
    X1        CONSTR5   734
    X2        OBJ       1009
    X2        CONSTR1   948
    X2        CONSTR2   613
    X2        CONSTR3   402
    X2        CONSTR4   316
    X2        CONSTR5   608
    X3        OBJ       1105
    X3        CONSTR1   984
    X3        CONSTR2   282
    X3        CONSTR3   218
    X3        CONSTR4   805
    X3        CONSTR5   782
    X4        OBJ       967
    X4        CONSTR1   859
    X4        CONSTR2   608
    X4        CONSTR3   930
    X4        CONSTR4   788
    X4        CONSTR5   477
    X5        OBJ       697
    X5        CONSTR1   801
    X5        CONSTR2   85
    X5        CONSTR3   667
    X5        CONSTR4   517
    X5        CONSTR5   393
    X6        OBJ       901
    X6        CONSTR1   768
    X6        CONSTR2   476
    X6        CONSTR3   848
    X6        CONSTR4   918
    X6        CONSTR5   720
    X7        OBJ       641
    X7        CONSTR1   229
    X7        CONSTR2   48
    X7        CONSTR3   304
    X7        CONSTR4   716
    X7        CONSTR5   867
    X8        OBJ       690
    X8        CONSTR1   497
    X8        CONSTR2   604
    X8        CONSTR3   276
    X8        CONSTR4   751
    X8        CONSTR5   993
    X9        OBJ       546
    X9        CONSTR1   299
    X9        CONSTR2   501
    X9        CONSTR3   572
    X9        CONSTR4   716
    X9        CONSTR5   170
    X10       OBJ       613
    X10       CONSTR1   88
    X10       CONSTR2   49
    X10       CONSTR3   693
    X10       CONSTR4   347
    X10       CONSTR5   45
    X11       OBJ       708
    X11       CONSTR1   113
    X11       CONSTR2   4
    X11       CONSTR3   739
    X11       CONSTR4   763
    X11       CONSTR5   739
    X12       OBJ       1059
    X12       CONSTR1   685
    X12       CONSTR2   253
    X12       CONSTR3   853
    X12       CONSTR4   613
    X12       CONSTR5   650
    X13       OBJ       569
    X13       CONSTR1   24
    X13       CONSTR2   227
    X13       CONSTR3   829
    X13       CONSTR4   202
    X13       CONSTR5   452
    X14       OBJ       976
    X14       CONSTR1   169
    X14       CONSTR2   405
    X14       CONSTR3   963
    X14       CONSTR4   816
    X14       CONSTR5   341
    X15       OBJ       774
    X15       CONSTR1   28
    X15       CONSTR2   348
    X15       CONSTR3   659
    X15       CONSTR4   62
    X15       CONSTR5   427
    X16       OBJ       755
    X16       CONSTR1   112
    X16       CONSTR2   47
    X16       CONSTR3   570
    X16       CONSTR4   304
    X16       CONSTR5   734
    X17       OBJ       842
    X17       CONSTR1   906
    X17       CONSTR2   277
    X17       CONSTR3   383
    X17       CONSTR4   145
    X17       CONSTR5   661
    X18       OBJ       972
    X18       CONSTR1   639
    X18       CONSTR2   14
    X18       CONSTR3   699
    X18       CONSTR4   850
    X18       CONSTR5   802
    X19       OBJ       761
    X19       CONSTR1   14
    X19       CONSTR2   91
    X19       CONSTR3   919
    X19       CONSTR4   800
    X19       CONSTR5   757
    X20       OBJ       625
    X20       CONSTR1   287
    X20       CONSTR2   638
    X20       CONSTR3   232
    X20       CONSTR4   729
    X20       CONSTR5   388
    X21       OBJ       861
    X21       CONSTR1   619
    X21       CONSTR2   931
    X21       CONSTR3   915
    X21       CONSTR4   486
    X21       CONSTR5   760
    X22       OBJ       880
    X22       CONSTR1   446
    X22       CONSTR2   998
    X22       CONSTR3   353
    X22       CONSTR4   527
    X22       CONSTR5   794
    X23       OBJ       804
    X23       CONSTR1   956
    X23       CONSTR2   336
    X23       CONSTR3   115
    X23       CONSTR4   425
    X23       CONSTR5   696
    X24       OBJ       573
    X24       CONSTR1   665
    X24       CONSTR2   523
    X24       CONSTR3   169
    X24       CONSTR4   510
    X24       CONSTR5   879
    X25       OBJ       851
    X25       CONSTR1   300
    X25       CONSTR2   714
    X25       CONSTR3   52
    X25       CONSTR4   906
    X25       CONSTR5   659
    X26       OBJ       514
    X26       CONSTR1   431
    X26       CONSTR2   35
    X26       CONSTR3   481
    X26       CONSTR4   108
    X26       CONSTR5   64
    X27       OBJ       853
    X27       CONSTR1   313
    X27       CONSTR2   260
    X27       CONSTR3   858
    X27       CONSTR4   751
    X27       CONSTR5   787
    X28       OBJ       663
    X28       CONSTR1   257
    X28       CONSTR2   327
    X28       CONSTR3   872
    X28       CONSTR4   888
    X28       CONSTR5   468
    X29       OBJ       1004
    X29       CONSTR1   886
    X29       CONSTR2   877
    X29       CONSTR3   334
    X29       CONSTR4   416
    X29       CONSTR5   161
    X30       OBJ       572
    X30       CONSTR1   575
    X30       CONSTR2   145
    X30       CONSTR3   47
    X30       CONSTR4   402
    X30       CONSTR5   124
    X31       OBJ       944
    X31       CONSTR1   948
    X31       CONSTR2   417
    X31       CONSTR3   27
    X31       CONSTR4   942
    X31       CONSTR5   89
    X32       OBJ       732
    X32       CONSTR1   851
    X32       CONSTR2   803
    X32       CONSTR3   4
    X32       CONSTR4   504
    X32       CONSTR5   42
    X33       OBJ       830
    X33       CONSTR1   882
    X33       CONSTR2   822
    X33       CONSTR3   87
    X33       CONSTR4   385
    X33       CONSTR5   223
    X34       OBJ       476
    X34       CONSTR1   182
    X34       CONSTR2   409
    X34       CONSTR3   87
    X34       CONSTR4   351
    X34       CONSTR5   715
    X35       OBJ       824
    X35       CONSTR1   205
    X35       CONSTR2   34
    X35       CONSTR3   829
    X35       CONSTR4   352
    X35       CONSTR5   227
    X36       OBJ       758
    X36       CONSTR1   551
    X36       CONSTR2   875
    X36       CONSTR3   484
    X36       CONSTR4   527
    X36       CONSTR5   259
    X37       OBJ       728
    X37       CONSTR1   1
    X37       CONSTR2   1000
    X37       CONSTR3   426
    X37       CONSTR4   369
    X37       CONSTR5   784
    X38       OBJ       707
    X38       CONSTR1   956
    X38       CONSTR2   352
    X38       CONSTR3   824
    X38       CONSTR4   502
    X38       CONSTR5   679
    X39       OBJ       739
    X39       CONSTR1   111
    X39       CONSTR2   951
    X39       CONSTR3   401
    X39       CONSTR4   827
    X39       CONSTR5   360
    X40       OBJ       474
    X40       CONSTR1   455
    X40       CONSTR2   246
    X40       CONSTR3   14
    X40       CONSTR4   83
    X40       CONSTR5   982
    X41       OBJ       428
    X41       CONSTR1   186
    X41       CONSTR2   388
    X41       CONSTR3   987
    X41       CONSTR4   95
    X41       CONSTR5   392
    X42       OBJ       417
    X42       CONSTR1   76
    X42       CONSTR2   696
    X42       CONSTR3   282
    X42       CONSTR4   230
    X42       CONSTR5   732
    X43       OBJ       835
    X43       CONSTR1   325
    X43       CONSTR2   413
    X43       CONSTR3   276
    X43       CONSTR4   189
    X43       CONSTR5   677
    X44       OBJ       581
    X44       CONSTR1   247
    X44       CONSTR2   799
    X44       CONSTR3   663
    X44       CONSTR4   568
    X44       CONSTR5   138
    X45       OBJ       632
    X45       CONSTR1   767
    X45       CONSTR2   325
    X45       CONSTR3   582
    X45       CONSTR4   48
    X45       CONSTR5   439
    X46       OBJ       484
    X46       CONSTR1   382
    X46       CONSTR2   615
    X46       CONSTR3   865
    X46       CONSTR4   139
    X46       CONSTR5   32
    X47       OBJ       892
    X47       CONSTR1   924
    X47       CONSTR2   335
    X47       CONSTR3   74
    X47       CONSTR4   976
    X47       CONSTR5   685
    X48       OBJ       1035
    X48       CONSTR1   481
    X48       CONSTR2   856
    X48       CONSTR3   658
    X48       CONSTR4   957
    X48       CONSTR5   779
    X49       OBJ       401
    X49       CONSTR1   262
    X49       CONSTR2   324
    X49       CONSTR3   222
    X49       CONSTR4   312
    X49       CONSTR5   69
    X50       OBJ       839
    X50       CONSTR1   869
    X50       CONSTR2   665
    X50       CONSTR3   9
    X50       CONSTR4   359
    X50       CONSTR5   863
    X51       OBJ       600
    X51       CONSTR1   204
    X51       CONSTR2   431
    X51       CONSTR3   881
    X51       CONSTR4   253
    X51       CONSTR5   359
    X52       OBJ       684
    X52       CONSTR1   974
    X52       CONSTR2   771
    X52       CONSTR3   65
    X52       CONSTR4   505
    X52       CONSTR5   413
    X53       OBJ       1066
    X53       CONSTR1   952
    X53       CONSTR2   586
    X53       CONSTR3   718
    X53       CONSTR4   749
    X53       CONSTR5   856
    X54       OBJ       834
    X54       CONSTR1   509
    X54       CONSTR2   198
    X54       CONSTR3   816
    X54       CONSTR4   174
    X54       CONSTR5   881
    X55       OBJ       857
    X55       CONSTR1   805
    X55       CONSTR2   683
    X55       CONSTR3   571
    X55       CONSTR4   1
    X55       CONSTR5   426
    X56       OBJ       1061
    X56       CONSTR1   965
    X56       CONSTR2   985
    X56       CONSTR3   757
    X56       CONSTR4   65
    X56       CONSTR5   745
    X57       OBJ       710
    X57       CONSTR1   284
    X57       CONSTR2   681
    X57       CONSTR3   281
    X57       CONSTR4   604
    X57       CONSTR5   286
    X58       OBJ       877
    X58       CONSTR1   978
    X58       CONSTR2   523
    X58       CONSTR3   697
    X58       CONSTR4   755
    X58       CONSTR5   221
    X59       OBJ       795
    X59       CONSTR1   643
    X59       CONSTR2   639
    X59       CONSTR3   369
    X59       CONSTR4   467
    X59       CONSTR5   146
    X60       OBJ       976
    X60       CONSTR1   851
    X60       CONSTR2   318
    X60       CONSTR3   709
    X60       CONSTR4   707
    X60       CONSTR5   770
    X61       OBJ       1154
    X61       CONSTR1   849
    X61       CONSTR2   873
    X61       CONSTR3   971
    X61       CONSTR4   472
    X61       CONSTR5   726
    X62       OBJ       426
    X62       CONSTR1   329
    X62       CONSTR2   697
    X62       CONSTR3   78
    X62       CONSTR4   222
    X62       CONSTR5   554
    X63       OBJ       827
    X63       CONSTR1   282
    X63       CONSTR2   854
    X63       CONSTR3   327
    X63       CONSTR4   25
    X63       CONSTR5   951
    X64       OBJ       1082
    X64       CONSTR1   510
    X64       CONSTR2   267
    X64       CONSTR3   576
    X64       CONSTR4   943
    X64       CONSTR5   942
    X65       OBJ       943
    X65       CONSTR1   901
    X65       CONSTR2   340
    X65       CONSTR3   467
    X65       CONSTR4   582
    X65       CONSTR5   517
    X66       OBJ       797
    X66       CONSTR1   855
    X66       CONSTR2   280
    X66       CONSTR3   995
    X66       CONSTR4   571
    X66       CONSTR5   842
    X67       OBJ       557
    X67       CONSTR1   521
    X67       CONSTR2   632
    X67       CONSTR3   756
    X67       CONSTR4   45
    X67       CONSTR5   89
    X68       OBJ       834
    X68       CONSTR1   577
    X68       CONSTR2   977
    X68       CONSTR3   51
    X68       CONSTR4   474
    X68       CONSTR5   84
    X69       OBJ       497
    X69       CONSTR1   881
    X69       CONSTR2   593
    X69       CONSTR3   279
    X69       CONSTR4   154
    X69       CONSTR5   441
    X70       OBJ       705
    X70       CONSTR1   291
    X70       CONSTR2   786
    X70       CONSTR3   618
    X70       CONSTR4   833
    X70       CONSTR5   868
    X71       OBJ       695
    X71       CONSTR1   598
    X71       CONSTR2   410
    X71       CONSTR3   358
    X71       CONSTR4   603
    X71       CONSTR5   510
    X72       OBJ       609
    X72       CONSTR1   606
    X72       CONSTR2   526
    X72       CONSTR3   337
    X72       CONSTR4   538
    X72       CONSTR5   442
    X73       OBJ       655
    X73       CONSTR1   800
    X73       CONSTR2   65
    X73       CONSTR3   54
    X73       CONSTR4   399
    X73       CONSTR5   119
    X74       OBJ       630
    X74       CONSTR1   493
    X74       CONSTR2   479
    X74       CONSTR3   490
    X74       CONSTR4   31
    X74       CONSTR5   621
    X75       OBJ       614
    X75       CONSTR1   964
    X75       CONSTR2   713
    X75       CONSTR3   127
    X75       CONSTR4   296
    X75       CONSTR5   31
    X76       OBJ       935
    X76       CONSTR1   951
    X76       CONSTR2   569
    X76       CONSTR3   93
    X76       CONSTR4   762
    X76       CONSTR5   604
    X77       OBJ       1003
    X77       CONSTR1   971
    X77       CONSTR2   154
    X77       CONSTR3   355
    X77       CONSTR4   728
    X77       CONSTR5   717
    X78       OBJ       803
    X78       CONSTR1   739
    X78       CONSTR2   852
    X78       CONSTR3   295
    X78       CONSTR4   575
    X78       CONSTR5   823
    X79       OBJ       704
    X79       CONSTR1   759
    X79       CONSTR2   916
    X79       CONSTR3   746
    X79       CONSTR4   169
    X79       CONSTR5   630
    X80       OBJ       836
    X80       CONSTR1   747
    X80       CONSTR2   661
    X80       CONSTR3   17
    X80       CONSTR4   459
    X80       CONSTR5   884
    X81       OBJ       445
    X81       CONSTR1   791
    X81       CONSTR2   230
    X81       CONSTR3   47
    X81       CONSTR4   145
    X81       CONSTR5   926
    X82       OBJ       808
    X82       CONSTR1   839
    X82       CONSTR2   674
    X82       CONSTR3   416
    X82       CONSTR4   671
    X82       CONSTR5   381
    X83       OBJ       464
    X83       CONSTR1   203
    X83       CONSTR2   156
    X83       CONSTR3   156
    X83       CONSTR4   625
    X83       CONSTR5   560
    X84       OBJ       651
    X84       CONSTR1   681
    X84       CONSTR2   703
    X84       CONSTR3   572
    X84       CONSTR4   574
    X84       CONSTR5   405
    X85       OBJ       1079
    X85       CONSTR1   729
    X85       CONSTR2   739
    X85       CONSTR3   771
    X85       CONSTR4   261
    X85       CONSTR5   441
    X86       OBJ       781
    X86       CONSTR1   682
    X86       CONSTR2   552
    X86       CONSTR3   11
    X86       CONSTR4   180
    X86       CONSTR5   891
    X87       OBJ       708
    X87       CONSTR1   952
    X87       CONSTR2   541
    X87       CONSTR3   426
    X87       CONSTR4   768
    X87       CONSTR5   338
    X88       OBJ       861
    X88       CONSTR1   622
    X88       CONSTR2   752
    X88       CONSTR3   133
    X88       CONSTR4   827
    X88       CONSTR5   5
    X89       OBJ       1230
    X89       CONSTR1   870
    X89       CONSTR2   225
    X89       CONSTR3   920
    X89       CONSTR4   926
    X89       CONSTR5   960
    X90       OBJ       927
    X90       CONSTR1   39
    X90       CONSTR2   128
    X90       CONSTR3   712
    X90       CONSTR4   925
    X90       CONSTR5   376
    X91       OBJ       494
    X91       CONSTR1   86
    X91       CONSTR2   449
    X91       CONSTR3   62
    X91       CONSTR4   75
    X91       CONSTR5   876
    X92       OBJ       1096
    X92       CONSTR1   798
    X92       CONSTR2   786
    X92       CONSTR3   874
    X92       CONSTR4   656
    X92       CONSTR5   77
    X93       OBJ       673
    X93       CONSTR1   693
    X93       CONSTR2   798
    X93       CONSTR3   878
    X93       CONSTR4   190
    X93       CONSTR5   33
    X94       OBJ       626
    X94       CONSTR1   39
    X94       CONSTR2   562
    X94       CONSTR3   920
    X94       CONSTR4   976
    X94       CONSTR5   360
    X95       OBJ       861
    X95       CONSTR1   632
    X95       CONSTR2   97
    X95       CONSTR3   249
    X95       CONSTR4   536
    X95       CONSTR5   520
    X96       OBJ       734
    X96       CONSTR1   900
    X96       CONSTR2   58
    X96       CONSTR3   511
    X96       CONSTR4   267
    X96       CONSTR5   74
    X97       OBJ       825
    X97       CONSTR1   729
    X97       CONSTR2   218
    X97       CONSTR3   255
    X97       CONSTR4   993
    X97       CONSTR5   367
    X98       OBJ       842
    X98       CONSTR1   192
    X98       CONSTR2   706
    X98       CONSTR3   539
    X98       CONSTR4   471
    X98       CONSTR5   636
    X99       OBJ       995
    X99       CONSTR1   970
    X99       CONSTR2   363
    X99       CONSTR3   639
    X99       CONSTR4   446
    X99       CONSTR5   954
    X100      OBJ       709
    X100      CONSTR1   346
    X100      CONSTR2   705
    X100      CONSTR3   567
    X100      CONSTR4   470
    X100      CONSTR5   225
    INT0001   'MARKER'  'INTEND'
RHS
    RHS10001  CONSTR1   42813
    RHS10001  CONSTR2   36845
    RHS10001  CONSTR3   36146
    RHS10001  CONSTR4   37149
    RHS10001  CONSTR5   39151
BOUNDS
 BV BND       X1        .00
 BV BND       X2        .00
 BV BND       X3        .00
 BV BND       X4        .00
 BV BND       X5        .00
 BV BND       X6        .00
 BV BND       X7        .00
 BV BND       X8        .00
 BV BND       X9        .00
 BV BND       X10       .00
 BV BND       X11       .00
 BV BND       X12       .00
 BV BND       X13       .00
 BV BND       X14       .00
 BV BND       X15       .00
 BV BND       X16       .00
 BV BND       X17       .00
 BV BND       X18       .00
 BV BND       X19       .00
 BV BND       X20       .00
 BV BND       X21       .00
 BV BND       X22       .00
 BV BND       X23       .00
 BV BND       X24       .00
 BV BND       X25       .00
 BV BND       X26       .00
 BV BND       X27       .00
 BV BND       X28       .00
 BV BND       X29       .00
 BV BND       X30       .00
 BV BND       X31       .00
 BV BND       X32       .00
 BV BND       X33       .00
 BV BND       X34       .00
 BV BND       X35       .00
 BV BND       X36       .00
 BV BND       X37       .00
 BV BND       X38       .00
 BV BND       X39       .00
 BV BND       X40       .00
 BV BND       X41       .00
 BV BND       X42       .00
 BV BND       X43       .00
 BV BND       X44       .00
 BV BND       X45       .00
 BV BND       X46       .00
 BV BND       X47       .00
 BV BND       X48       .00
 BV BND       X49       .00
 BV BND       X50       .00
 BV BND       X51       .00
 BV BND       X52       .00
 BV BND       X53       .00
 BV BND       X54       .00
 BV BND       X55       .00
 BV BND       X56       .00
 BV BND       X57       .00
 BV BND       X58       .00
 BV BND       X59       .00
 BV BND       X60       .00
 BV BND       X61       .00
 BV BND       X62       .00
 BV BND       X63       .00
 BV BND       X64       .00
 BV BND       X65       .00
 BV BND       X66       .00
 BV BND       X67       .00
 BV BND       X68       .00
 BV BND       X69       .00
 BV BND       X70       .00
 BV BND       X71       .00
 BV BND       X72       .00
 BV BND       X73       .00
 BV BND       X74       .00
 BV BND       X75       .00
 BV BND       X76       .00
 BV BND       X77       .00
 BV BND       X78       .00
 BV BND       X79       .00
 BV BND       X80       .00
 BV BND       X81       .00
 BV BND       X82       .00
 BV BND       X83       .00
 BV BND       X84       .00
 BV BND       X85       .00
 BV BND       X86       .00
 BV BND       X87       .00
 BV BND       X88       .00
 BV BND       X89       .00
 BV BND       X90       .00
 BV BND       X91       .00
 BV BND       X92       .00
 BV BND       X93       .00
 BV BND       X94       .00
 BV BND       X95       .00
 BV BND       X96       .00
 BV BND       X97       .00
 BV BND       X98       .00
 BV BND       X99       .00
 BV BND       X100      .00
ENDATA
